Nb of jobs, Nb of Machines, Time seed, Machine seed, Upper bound, Lower bound
5,10,-1,-1,-1,-1
Times
83,29,30,14,8,30,58,20,24,4
53,46,40,97,88,44,35,97,2,87
69,55,21,88,18,27,25,40,88,5
54,39,29,52,23,21,9,43,31,46
23,58,67,67,36,40,16,7,63,25
Machines
2,1,4,9,6,8,5,3,7,10
2,5,3,9,4,1,7,8,10,6
4,10,3,6,7,5,1,2,8,9
10,5,4,3,9,2,7,1,6,8
8,3,10,7,9,1,6,2,4,5
